(set-logic QF_NRA)
(declare-fun skoZ () Real)
(declare-fun skoY () Real)
(declare-fun skoX () Real)
(declare-fun skoW () Real)
(assert (and (<= (+ (* (- 1) skoZ) (* (- 1) skoY) (* (- 1) skoX) (* (- 1) skoW)) 0) (and (not (<= (+ (* (- 5040) skoZ) (* (- 5040) skoY) (* (- 5040) skoX) (* (- 5040) skoW) (* 840 (* skoW skoW skoW)) (* 2520 (* skoX skoW skoW)) (* 840 (* skoX skoX skoX)) (* 2520 (* skoX skoX skoW)) (* 2520 (* skoY skoW skoW)) (* 2520 (* skoY skoX skoX)) (* 5040 (* skoY skoX skoW)) (* 840 (* skoY skoY skoY)) (* 2520 (* skoY skoY skoX)) (* 2520 (* skoY skoY skoW)) (* 2520 (* skoZ skoW skoW)) (* 2520 (* skoZ skoX skoX)) (* 5040 (* skoZ skoX skoW)) (* 2520 (* skoZ skoY skoY)) (* 5040 (* skoZ skoY skoX)) (* 5040 (* skoZ skoY skoW)) (* 840 (* skoZ skoZ skoZ)) (* 2520 (* skoZ skoZ skoY)) (* 2520 (* skoZ skoZ skoX)) (* 2520 (* skoZ skoZ skoW)) (* (- 42) (* skoW skoW skoW skoW skoW)) (* (- 210) (* skoX skoW skoW skoW skoW)) (* (- 420) (* skoX skoX skoW skoW skoW)) (* (- 420) (* skoX skoX skoX skoW skoW)) (* (- 42) (* skoX skoX skoX skoX skoX)) (* (- 210) (* skoX skoX skoX skoX skoW)) (* (- 210) (* skoY skoW skoW skoW skoW)) (* (- 840) (* skoY skoX skoW skoW skoW)) (* (- 1260) (* skoY skoX skoX skoW skoW)) (* (- 210) (* skoY skoX skoX skoX skoX)) (* (- 840) (* skoY skoX skoX skoX skoW)) (* (- 420) (* skoY skoY skoW skoW skoW)) (* (- 1260) (* skoY skoY skoX skoW skoW)) (* (- 420) (* skoY skoY skoX skoX skoX)) (* (- 1260) (* skoY skoY skoX skoX skoW)) (* (- 420) (* skoY skoY skoY skoW skoW)) (* (- 420) (* skoY skoY skoY skoX skoX)) (* (- 840) (* skoY skoY skoY skoX skoW)) (* (- 42) (* skoY skoY skoY skoY skoY)) (* (- 210) (* skoY skoY skoY skoY skoX)) (* (- 210) (* skoY skoY skoY skoY skoW)) (* (- 210) (* skoZ skoW skoW skoW skoW)) (* (- 840) (* skoZ skoX skoW skoW skoW)) (* (- 1260) (* skoZ skoX skoX skoW skoW)) (* (- 210) (* skoZ skoX skoX skoX skoX)) (* (- 840) (* skoZ skoX skoX skoX skoW)) (* (- 840) (* skoZ skoY skoW skoW skoW)) (* (- 2520) (* skoZ skoY skoX skoW skoW)) (* (- 840) (* skoZ skoY skoX skoX skoX)) (* (- 2520) (* skoZ skoY skoX skoX skoW)) (* (- 1260) (* skoZ skoY skoY skoW skoW)) (* (- 1260) (* skoZ skoY skoY skoX skoX)) (* (- 2520) (* skoZ skoY skoY skoX skoW)) (* (- 210) (* skoZ skoY skoY skoY skoY)) (* (- 840) (* skoZ skoY skoY skoY skoX)) (* (- 840) (* skoZ skoY skoY skoY skoW)) (* (- 420) (* skoZ skoZ skoW skoW skoW)) (* (- 1260) (* skoZ skoZ skoX skoW skoW)) (* (- 420) (* skoZ skoZ skoX skoX skoX)) (* (- 1260) (* skoZ skoZ skoX skoX skoW)) (* (- 1260) (* skoZ skoZ skoY skoW skoW)) (* (- 1260) (* skoZ skoZ skoY skoX skoX)) (* (- 2520) (* skoZ skoZ skoY skoX skoW)) (* (- 420) (* skoZ skoZ skoY skoY skoY)) (* (- 1260) (* skoZ skoZ skoY skoY skoX)) (* (- 1260) (* skoZ skoZ skoY skoY skoW)) (* (- 420) (* skoZ skoZ skoZ skoW skoW)) (* (- 420) (* skoZ skoZ skoZ skoX skoX)) (* (- 840) (* skoZ skoZ skoZ skoX skoW)) (* (- 420) (* skoZ skoZ skoZ skoY skoY)) (* (- 840) (* skoZ skoZ skoZ skoY skoX)) (* (- 840) (* skoZ skoZ skoZ skoY skoW)) (* (- 42) (* skoZ skoZ skoZ skoZ skoZ)) (* (- 210) (* skoZ skoZ skoZ skoZ skoY)) (* (- 210) (* skoZ skoZ skoZ skoZ skoX)) (* (- 210) (* skoZ skoZ skoZ skoZ skoW)) (* 7 (* skoZ skoW skoW skoW skoW skoW skoW)) (* 42 (* skoZ skoX skoW skoW skoW skoW skoW)) (* 105 (* skoZ skoX skoX skoW skoW skoW skoW)) (* 140 (* skoZ skoX skoX skoX skoW skoW skoW)) (* 105 (* skoZ skoX skoX skoX skoX skoW skoW)) (* 7 (* skoZ skoX skoX skoX skoX skoX skoX)) (* 42 (* skoZ skoX skoX skoX skoX skoX skoW)) (* 42 (* skoZ skoY skoW skoW skoW skoW skoW)) (* 210 (* skoZ skoY skoX skoW skoW skoW skoW)) (* 420 (* skoZ skoY skoX skoX skoW skoW skoW)) (* 420 (* skoZ skoY skoX skoX skoX skoW skoW)) (* 42 (* skoZ skoY skoX skoX skoX skoX skoX)) (* 210 (* skoZ skoY skoX skoX skoX skoX skoW)) (* 105 (* skoZ skoY skoY skoW skoW skoW skoW)) (* 420 (* skoZ skoY skoY skoX skoW skoW skoW)) (* 630 (* skoZ skoY skoY skoX skoX skoW skoW)) (* 105 (* skoZ skoY skoY skoX skoX skoX skoX)) (* 420 (* skoZ skoY skoY skoX skoX skoX skoW)) (* 140 (* skoZ skoY skoY skoY skoW skoW skoW)) (* 420 (* skoZ skoY skoY skoY skoX skoW skoW)) (* 140 (* skoZ skoY skoY skoY skoX skoX skoX)) (* 420 (* skoZ skoY skoY skoY skoX skoX skoW)) (* 105 (* skoZ skoY skoY skoY skoY skoW skoW)) (* 105 (* skoZ skoY skoY skoY skoY skoX skoX)) (* 210 (* skoZ skoY skoY skoY skoY skoX skoW)) (* 7 (* skoZ skoY skoY skoY skoY skoY skoY)) (* 42 (* skoZ skoY skoY skoY skoY skoY skoX)) (* 42 (* skoZ skoY skoY skoY skoY skoY skoW)) (* 21 (* skoZ skoZ skoW skoW skoW skoW skoW)) (* 105 (* skoZ skoZ skoX skoW skoW skoW skoW)) (* 210 (* skoZ skoZ skoX skoX skoW skoW skoW)) (* 210 (* skoZ skoZ skoX skoX skoX skoW skoW)) (* 21 (* skoZ skoZ skoX skoX skoX skoX skoX)) (* 105 (* skoZ skoZ skoX skoX skoX skoX skoW)) (* 105 (* skoZ skoZ skoY skoW skoW skoW skoW)) (* 420 (* skoZ skoZ skoY skoX skoW skoW skoW)) (* 630 (* skoZ skoZ skoY skoX skoX skoW skoW)) (* 105 (* skoZ skoZ skoY skoX skoX skoX skoX)) (* 420 (* skoZ skoZ skoY skoX skoX skoX skoW)) (* 210 (* skoZ skoZ skoY skoY skoW skoW skoW)) (* 630 (* skoZ skoZ skoY skoY skoX skoW skoW)) (* 210 (* skoZ skoZ skoY skoY skoX skoX skoX)) (* 630 (* skoZ skoZ skoY skoY skoX skoX skoW)) (* 210 (* skoZ skoZ skoY skoY skoY skoW skoW)) (* 210 (* skoZ skoZ skoY skoY skoY skoX skoX)) (* 420 (* skoZ skoZ skoY skoY skoY skoX skoW)) (* 21 (* skoZ skoZ skoY skoY skoY skoY skoY)) (* 105 (* skoZ skoZ skoY skoY skoY skoY skoX)) (* 105 (* skoZ skoZ skoY skoY skoY skoY skoW)) (* 35 (* skoZ skoZ skoZ skoW skoW skoW skoW)) (* 140 (* skoZ skoZ skoZ skoX skoW skoW skoW)) (* 210 (* skoZ skoZ skoZ skoX skoX skoW skoW)) (* 35 (* skoZ skoZ skoZ skoX skoX skoX skoX)) (* 140 (* skoZ skoZ skoZ skoX skoX skoX skoW)) (* 140 (* skoZ skoZ skoZ skoY skoW skoW skoW)) (* 420 (* skoZ skoZ skoZ skoY skoX skoW skoW)) (* 140 (* skoZ skoZ skoZ skoY skoX skoX skoX)) (* 420 (* skoZ skoZ skoZ skoY skoX skoX skoW)) (* 210 (* skoZ skoZ skoZ skoY skoY skoW skoW)) (* 210 (* skoZ skoZ skoZ skoY skoY skoX skoX)) (* 420 (* skoZ skoZ skoZ skoY skoY skoX skoW)) (* 35 (* skoZ skoZ skoZ skoY skoY skoY skoY)) (* 140 (* skoZ skoZ skoZ skoY skoY skoY skoX)) (* 140 (* skoZ skoZ skoZ skoY skoY skoY skoW)) (* 35 (* skoZ skoZ skoZ skoZ skoW skoW skoW)) (* 105 (* skoZ skoZ skoZ skoZ skoX skoW skoW)) (* 35 (* skoZ skoZ skoZ skoZ skoX skoX skoX)) (* 105 (* skoZ skoZ skoZ skoZ skoX skoX skoW)) (* 105 (* skoZ skoZ skoZ skoZ skoY skoW skoW)) (* 105 (* skoZ skoZ skoZ skoZ skoY skoX skoX)) (* 210 (* skoZ skoZ skoZ skoZ skoY skoX skoW)) (* 35 (* skoZ skoZ skoZ skoZ skoY skoY skoY)) (* 105 (* skoZ skoZ skoZ skoZ skoY skoY skoX)) (* 105 (* skoZ skoZ skoZ skoZ skoY skoY skoW)) (* 21 (* skoZ skoZ skoZ skoZ skoZ skoW skoW)) (* 21 (* skoZ skoZ skoZ skoZ skoZ skoX skoX)) (* 42 (* skoZ skoZ skoZ skoZ skoZ skoX skoW)) (* 21 (* skoZ skoZ skoZ skoZ skoZ skoY skoY)) (* 42 (* skoZ skoZ skoZ skoZ skoZ skoY skoX)) (* 42 (* skoZ skoZ skoZ skoZ skoZ skoY skoW)) (* skoZ skoZ skoZ skoZ skoZ skoZ skoZ) (* 7 (* skoZ skoZ skoZ skoZ skoZ skoZ skoY)) (* 7 (* skoZ skoZ skoZ skoZ skoZ skoZ skoX)) (* 7 (* skoZ skoZ skoZ skoZ skoZ skoZ skoW)) (* skoW skoW skoW skoW skoW skoW skoW) (* 7 (* skoX skoW skoW skoW skoW skoW skoW)) (* 21 (* skoX skoX skoW skoW skoW skoW skoW)) (* 35 (* skoX skoX skoX skoW skoW skoW skoW)) (* 35 (* skoX skoX skoX skoX skoW skoW skoW)) (* 21 (* skoX skoX skoX skoX skoX skoW skoW)) (* skoX skoX skoX skoX skoX skoX skoX) (* 7 (* skoX skoX skoX skoX skoX skoX skoW)) (* 7 (* skoY skoW skoW skoW skoW skoW skoW)) (* 42 (* skoY skoX skoW skoW skoW skoW skoW)) (* 105 (* skoY skoX skoX skoW skoW skoW skoW)) (* 140 (* skoY skoX skoX skoX skoW skoW skoW)) (* 105 (* skoY skoX skoX skoX skoX skoW skoW)) (* 7 (* skoY skoX skoX skoX skoX skoX skoX)) (* 42 (* skoY skoX skoX skoX skoX skoX skoW)) (* 21 (* skoY skoY skoW skoW skoW skoW skoW)) (* 105 (* skoY skoY skoX skoW skoW skoW skoW)) (* 210 (* skoY skoY skoX skoX skoW skoW skoW)) (* 210 (* skoY skoY skoX skoX skoX skoW skoW)) (* 21 (* skoY skoY skoX skoX skoX skoX skoX)) (* 105 (* skoY skoY skoX skoX skoX skoX skoW)) (* 35 (* skoY skoY skoY skoW skoW skoW skoW)) (* 140 (* skoY skoY skoY skoX skoW skoW skoW)) (* 210 (* skoY skoY skoY skoX skoX skoW skoW)) (* 35 (* skoY skoY skoY skoX skoX skoX skoX)) (* 140 (* skoY skoY skoY skoX skoX skoX skoW)) (* 35 (* skoY skoY skoY skoY skoW skoW skoW)) (* 105 (* skoY skoY skoY skoY skoX skoW skoW)) (* 35 (* skoY skoY skoY skoY skoX skoX skoX)) (* 105 (* skoY skoY skoY skoY skoX skoX skoW)) (* 21 (* skoY skoY skoY skoY skoY skoW skoW)) (* 21 (* skoY skoY skoY skoY skoY skoX skoX)) (* 42 (* skoY skoY skoY skoY skoY skoX skoW)) (* skoY skoY skoY skoY skoY skoY skoY) (* 7 (* skoY skoY skoY skoY skoY skoY skoX)) (* 7 (* skoY skoY skoY skoY skoY skoY skoW))) 0)) (and (not (<= (* (- 1) skoW) (- 3))) (and (not (<= (* (- 1) skoX) (- 3))) (and (not (<= (* (- 1) skoY) (- 3))) (and (not (<= (* (- 1) skoZ) (- 3))) (and (not (<= (* 10 skoW) 1)) (and (not (<= (* 10 skoX) 1)) (and (not (<= (* 10 skoY) 1)) (not (<= (* 10 skoZ) 1))))))))))))
(set-info :status sat)
(check-sat)
